NAME : n60w120.004.607.tour
COMMENT : Length = 607
COMMENT : Found by LKH [Keld Helsgaun] Tue Nov  7 19:39:18 2017
TYPE : TOUR
DIMENSION : 61
TOUR_SECTION
1
50
49
57
11
14
26
9
13
34
44
28
59
36
30
12
4
39
10
23
56
24
5
31
55
42
45
51
22
19
2
7
3
35
16
41
18
48
21
8
25
47
43
15
6
20
29
32
40
27
46
53
54
38
60
17
33
61
37
58
52
-1
EOF
